peakDumbCharging = 7400; 
Machine = anon_enum(16); 
machineSpeed = [3700,3700,3700,3700,3700,3700,3700,3700,3700,3700,3700,3700,3700,3700,3700,3700]; 
machineLoad = [3700,3700,3700,3700,3700,3700,3700,3700,3700,3700,3700,3700,3700,3700,3700,3700]; 
Car = anon_enum(11); 
demandCar = [3680,6560,5000,5880,4280,8360,2600,6800,4560,32440,27160]; 
arrivalCar = [75,75,72,69,65,57,55,51,49,34,32]; 
departureCar = [77,78,76,75,69,63,57,60,52,67,49]; 
